(declare-fun X0 () Int)
(declare-fun X1 () Int)
(declare-fun X2 () Int)
(declare-fun X3 () Int)
(declare-fun X4 () Int)
(declare-fun X5 () Int)
(declare-fun X6 () Int)
(declare-fun X7 () Int)
(declare-fun X8 () Int)
(declare-fun X9 () Int)
(declare-fun X10 () Int)
(declare-fun X11 () Int)
(declare-fun X12 () Int)
(declare-fun X13 () Int)
(declare-fun X14 () Int)
(declare-fun X15 () Int)
(declare-fun X16 () Int)
(assert (>= (- X1 X0) 0))
(assert (>= (- X2 X1) 0))
(assert (>= (- X3 X2) 0))
(assert (>= (- X4 X3) 0))
(assert (>= (- X5 X4) 0))
(assert (>= (- X6 X5) 0))
(assert (>= (- X7 X6) 0))
(assert (>= (- X8 X7) 0))
(assert (>= (- X9 X8) 0))
(assert (>= (- X10 X9) 0))
(assert (>= (- X11 X10) 0))
(assert (>= (- X12 X11) 0))
(assert (>= (- X13 X12) 0))
(assert (>= (- X14 X13) 0))
(assert (>= (- X15 X14) 0))
(assert (<= (- X16 X15) 7))
(check-sat)
